Traveling Salesman Problem/TSP_generados/Aleatorio1621104047_18.tsp
NAME: Aleatorio1621104047_18.tsp
COMMENT: Randomly generated scenario
TYPE: TSP
DIMENSION: 18
EDGE_WEIGHT_TYPE: ATT
NODE_COORD_SECTION
1 22.67 10.64
2 48.76 39.4
3 47.65 11.43
4 34.06 43.24
5 8.84 7.95
6 28.32 10.61
7 24.22 29.92
8 15.52 37.46
9 15.86 28.65
10 0.64 32.63
11 2.26 12.54
12 12.5 18.45
13 39.42 2.43
14 18.22 0.99
15 37.54 30.59
16 18.22 25.72
17 3.64 36.12
18 47.05 3.18
