Traveling Salesman Problem/TSP_generados/Aleatorio1621104047_18.opt.tour
NAME: Aleatorio1621104047_18.opt.tour
COMMENT: Optimal solution for Aleatorio1621104047_18 (200.15895264463816)
TYPE: TOUR
DIMENSION: 18
TOUR_SECTION
1 6 13 18 3 15 2 4 7 16 9 8 17 10 12 11 5 14
-1
EOF
